angiejc.lp
\ Model JSuperPoly
\ LP format - for model browsing. Use MPS format to capture full model detail.
Minimize
  0 K_16 + 0 flag_16 + 0 K_17 + 0 flag_17 + 0 K_18 + 0 flag_18 + 0 K_19
   + 0 flag_19 + 0 K_20 + 0 flag_20 + 0 K_21 + 0 flag_21 + 0 K_22
   + 0 flag_22 + 0 K_23 + 0 flag_23 + 0 K_24 + 0 flag_24 + 0 K_25
   + 0 flag_25 + 0 K_26 + 0 flag_26 + 0 K_27 + 0 flag_27 + 0 K_28
   + 0 flag_28 + 0 K_29 + 0 flag_29 + 0 K_30 + 0 flag_30 + 0 K_31
   + 0 flag_31 + 0 K_32 + 0 flag_32 + 0 K_33 + 0 flag_33 + 0 K_34
   + 0 flag_34 + 0 K_35 + 0 flag_35 + 0 K_36 + 0 flag_36 + 0 K_37
   + 0 flag_37 + 0 K_38 + 0 flag_38 + 0 K_39 + 0 flag_39 + 0 K_40
   + 0 flag_40 + 0 K_41 + 0 flag_41 + 0 K_42 + 0 flag_42 + 0 K_43
   + 0 flag_43 + 0 K_44 + 0 flag_44 + 0 K_45 + 0 flag_45 + 0 K_46
   + 0 flag_46 + 0 K_47 + 0 flag_47 + 0 K_48 + 0 flag_48 + 0 K_49
   + 0 flag_49 + 0 K_50 + 0 flag_50 + 0 K_51 + 0 flag_51 + 0 K_52
   + 0 flag_52 + 0 K_53 + 0 flag_53 + 0 K_54 + 0 flag_54 + 0 K_55
   + 0 flag_55 + 0 K_56 + 0 flag_56 + 0 K_57 + 0 flag_57 + 0 K_58
   + 0 flag_58 + 0 K_59 + 0 flag_59 + 0 K_60 + 0 flag_60 + 0 K_61
   + 0 flag_61 + 0 K_62 + 0 flag_62 + 0 K_63 + 0 flag_63
Subject To
 R0: - RK^0_0 + a^1_0 = 0
 R1: - L^0_0 + a^1_0 = 0
 R2: R^0_0 - b^1_0 = 0
 R3: - b^1_0 + c^1_0 >= 0
 R4: - a^1_0 - b^1_0 + c^1_0 = 0
 R5: - c^1_1 + d^1_0 = 0
 R6: - c^1_2 + d^1_0 = 0
 R7: e^1_0 - d^1_0 >= 0
 R8: - c^1_0 + e^1_0 - d^1_0 = 0
 R9: f^1_0 - e^1_3 - e^1_9 - e^1_14 = 0
 R10: f^1_0 - e^1_3 - e^1_9 >= 0
 R11: - f^1_0 + g^1_0 = 0
 R12: - RK^0_0 + g^1_0 = 0
 R13: - R^0_0 + L^1_0 >= 0
 R14: - R^0_0 - g^1_0 + L^1_0 = 0
 R15: - L^0_0 + R^1_0 >= 0
 R16: - L^0_0 - f^1_0 + R^1_0 = 0
 R17: - RK^0_1 + a^1_1 = 0
 R18: - L^0_1 + a^1_1 = 0
 R19: R^0_1 - b^1_1 = 0
 R20: - b^1_1 + c^1_1 >= 0
 R21: - a^1_1 - b^1_1 + c^1_1 = 0
 R22: - c^1_2 + d^1_1 = 0
 R23: - c^1_3 + d^1_1 = 0
 R24: e^1_1 - d^1_1 >= 0
 R25: - c^1_1 + e^1_1 - d^1_1 = 0
 R26: f^1_1 - e^1_4 - e^1_10 - e^1_15 = 0
 R27: f^1_1 - e^1_4 - e^1_10 >= 0
 R28: - f^1_1 + g^1_1 = 0
 R29: - RK^0_1 + g^1_1 = 0
 R30: - R^0_1 + L^1_1 >= 0
 R31: - R^0_1 - g^1_1 + L^1_1 = 0
 R32: - L^0_1 + R^1_1 >= 0
 R33: - L^0_1 - f^1_1 + R^1_1 = 0
 R34: - RK^0_2 + a^1_2 = 0
 R35: - L^0_2 + a^1_2 = 0
 R36: R^0_2 - b^1_2 = 0
 R37: - b^1_2 + c^1_2 >= 0
 R38: - a^1_2 - b^1_2 + c^1_2 = 0
 R39: - c^1_3 + d^1_2 = 0
 R40: - c^1_4 + d^1_2 = 0
 R41: e^1_2 - d^1_2 >= 0
 R42: - c^1_2 + e^1_2 - d^1_2 = 0
 R43: - e^1_0 + f^1_2 - e^1_5 - e^1_11 = 0
 R44: f^1_2 - e^1_5 - e^1_11 >= 0
 R45: - f^1_2 + g^1_2 = 0
 R46: - RK^0_2 + g^1_2 = 0
 R47: - R^0_2 + L^1_2 >= 0
 R48: - R^0_2 - g^1_2 + L^1_2 = 0
 R49: - L^0_2 + R^1_2 >= 0
 R50: - L^0_2 - f^1_2 + R^1_2 = 0
 R51: - RK^0_3 + a^1_3 = 0
 R52: - L^0_3 + a^1_3 = 0
 R53: R^0_3 - b^1_3 = 0
 R54: - b^1_3 + c^1_3 >= 0
 R55: - a^1_3 - b^1_3 + c^1_3 = 0
 R56: - c^1_4 + d^1_3 = 0
 R57: - c^1_5 + d^1_3 = 0
 R58: e^1_3 - d^1_3 >= 0
 R59: - c^1_3 + e^1_3 - d^1_3 = 0
 R60: - e^1_1 + f^1_3 - e^1_6 - e^1_12 = 0
 R61: f^1_3 - e^1_6 - e^1_12 >= 0
 R62: - f^1_3 + g^1_3 = 0
 R63: - RK^0_3 + g^1_3 = 0
 R64: - R^0_3 + L^1_3 >= 0
 R65: - R^0_3 - g^1_3 + L^1_3 = 0
 R66: - L^0_3 + R^1_3 >= 0
 R67: - L^0_3 - f^1_3 + R^1_3 = 0
 R68: - RK^0_4 + a^1_4 = 0
 R69: - L^0_4 + a^1_4 = 0
 R70: R^0_4 - b^1_4 = 0
 R71: - b^1_4 + c^1_4 >= 0
 R72: - a^1_4 - b^1_4 + c^1_4 = 0
 R73: - c^1_5 + d^1_4 = 0
 R74: - c^1_6 + d^1_4 = 0
 R75: e^1_4 - d^1_4 >= 0
 R76: - c^1_4 + e^1_4 - d^1_4 = 0
 R77: - e^1_2 + f^1_4 - e^1_7 - e^1_13 = 0
 R78: f^1_4 - e^1_7 - e^1_13 >= 0
 R79: - f^1_4 + g^1_4 = 0
 R80: - RK^0_4 + g^1_4 = 0
 R81: - R^0_4 + L^1_4 >= 0
 R82: - R^0_4 - g^1_4 + L^1_4 = 0
 R83: - L^0_4 + R^1_4 >= 0
 R84: - L^0_4 - f^1_4 + R^1_4 = 0
 R85: - RK^0_5 + a^1_5 = 0
 R86: - L^0_5 + a^1_5 = 0
 R87: R^0_5 - b^1_5 = 0
 R88: - b^1_5 + c^1_5 >= 0
 R89: - a^1_5 - b^1_5 + c^1_5 = 0
 R90: - c^1_6 + d^1_5 = 0
 R91: - c^1_7 + d^1_5 = 0
 R92: e^1_5 - d^1_5 >= 0
 R93: - c^1_5 + e^1_5 - d^1_5 = 0
 R94: - e^1_3 + f^1_5 - e^1_8 - e^1_14 = 0
 R95: f^1_5 - e^1_8 - e^1_14 >= 0
 R96: - f^1_5 + g^1_5 = 0
 R97: - RK^0_5 + g^1_5 = 0
 R98: - R^0_5 + L^1_5 >= 0
 R99: - R^0_5 - g^1_5 + L^1_5 = 0
 R100: - L^0_5 + R^1_5 >= 0
 R101: - L^0_5 - f^1_5 + R^1_5 = 0
 R102: - RK^0_6 + a^1_6 = 0
 R103: - L^0_6 + a^1_6 = 0
 R104: R^0_6 - b^1_6 = 0
 R105: - b^1_6 + c^1_6 >= 0
 R106: - a^1_6 - b^1_6 + c^1_6 = 0
 R107: - c^1_7 + d^1_6 = 0
 R108: - c^1_8 + d^1_6 = 0
 R109: e^1_6 - d^1_6 >= 0
 R110: - c^1_6 + e^1_6 - d^1_6 = 0
 R111: - e^1_4 + f^1_6 - e^1_9 - e^1_15 = 0
 R112: f^1_6 - e^1_9 - e^1_15 >= 0
 R113: - f^1_6 + g^1_6 = 0
 R114: - RK^0_6 + g^1_6 = 0
 R115: - R^0_6 + L^1_6 >= 0
 R116: - R^0_6 - g^1_6 + L^1_6 = 0
 R117: - L^0_6 + R^1_6 >= 0
 R118: - L^0_6 - f^1_6 + R^1_6 = 0
 R119: - RK^0_7 + a^1_7 = 0
 R120: - L^0_7 + a^1_7 = 0
 R121: R^0_7 - b^1_7 = 0
 R122: - b^1_7 + c^1_7 >= 0
 R123: - a^1_7 - b^1_7 + c^1_7 = 0
 R124: - c^1_8 + d^1_7 = 0
 R125: - c^1_9 + d^1_7 = 0
 R126: e^1_7 - d^1_7 >= 0
 R127: - c^1_7 + e^1_7 - d^1_7 = 0
 R128: - e^1_0 - e^1_5 + f^1_7 - e^1_10 = 0
 R129: - e^1_0 + f^1_7 - e^1_10 >= 0
 R130: - f^1_7 + g^1_7 = 0
 R131: - RK^0_7 + g^1_7 = 0
 R132: - R^0_7 + L^1_7 >= 0
 R133: - R^0_7 - g^1_7 + L^1_7 = 0
 R134: - L^0_7 + R^1_7 >= 0
 R135: - L^0_7 - f^1_7 + R^1_7 = 0
 R136: - RK^0_8 + a^1_8 = 0
 R137: - L^0_8 + a^1_8 = 0
 R138: R^0_8 - b^1_8 = 0
 R139: - b^1_8 + c^1_8 >= 0
 R140: - a^1_8 - b^1_8 + c^1_8 = 0
 R141: - c^1_9 + d^1_8 = 0
 R142: - c^1_10 + d^1_8 = 0
 R143: e^1_8 - d^1_8 >= 0
 R144: - c^1_8 + e^1_8 - d^1_8 = 0
 R145: - e^1_1 - e^1_6 + f^1_8 - e^1_11 = 0
 R146: - e^1_1 + f^1_8 - e^1_11 >= 0
 R147: - f^1_8 + g^1_8 = 0
 R148: - RK^0_8 + g^1_8 = 0
 R149: - R^0_8 + L^1_8 >= 0
 R150: - R^0_8 - g^1_8 + L^1_8 = 0
 R151: - L^0_8 + R^1_8 >= 0
 R152: - L^0_8 - f^1_8 + R^1_8 = 0
 R153: - RK^0_9 + a^1_9 = 0
 R154: - L^0_9 + a^1_9 = 0
 R155: R^0_9 - b^1_9 = 0
 R156: - b^1_9 + c^1_9 >= 0
 R157: - a^1_9 - b^1_9 + c^1_9 = 0
 R158: - c^1_10 + d^1_9 = 0
 R159: - c^1_11 + d^1_9 = 0
 R160: e^1_9 - d^1_9 >= 0
 R161: - c^1_9 + e^1_9 - d^1_9 = 0
 R162: - e^1_2 - e^1_7 + f^1_9 - e^1_12 = 0
 R163: - e^1_2 + f^1_9 - e^1_12 >= 0
 R164: - f^1_9 + g^1_9 = 0
 R165: - RK^0_9 + g^1_9 = 0
 R166: - R^0_9 + L^1_9 >= 0
 R167: - R^0_9 - g^1_9 + L^1_9 = 0
 R168: - L^0_9 + R^1_9 >= 0
 R169: - L^0_9 - f^1_9 + R^1_9 = 0
 R170: - RK^0_10 + a^1_10 = 0
 R171: - L^0_10 + a^1_10 = 0
 R172: R^0_10 - b^1_10 = 0
 R173: - b^1_10 + c^1_10 >= 0
 R174: - a^1_10 - b^1_10 + c^1_10 = 0
 R175: - c^1_11 + d^1_10 = 0
 R176: - c^1_12 + d^1_10 = 0
 R177: e^1_10 - d^1_10 >= 0
 R178: - c^1_10 + e^1_10 - d^1_10 = 0
 R179: - e^1_3 - e^1_8 + f^1_10 - e^1_13 = 0
 R180: - e^1_3 + f^1_10 - e^1_13 >= 0
 R181: - f^1_10 + g^1_10 = 0
 R182: - RK^0_10 + g^1_10 = 0
 R183: - R^0_10 + L^1_10 >= 0
 R184: - R^0_10 - g^1_10 + L^1_10 = 0
 R185: - L^0_10 + R^1_10 >= 0
 R186: - L^0_10 - f^1_10 + R^1_10 = 0
 R187: - RK^0_11 + a^1_11 = 0
 R188: - L^0_11 + a^1_11 = 0
 R189: R^0_11 - b^1_11 = 0
 R190: - b^1_11 + c^1_11 >= 0
 R191: - a^1_11 - b^1_11 + c^1_11 = 0
 R192: - c^1_12 + d^1_11 = 0
 R193: - c^1_13 + d^1_11 = 0
 R194: e^1_11 - d^1_11 >= 0
 R195: - c^1_11 + e^1_11 - d^1_11 = 0
 R196: - e^1_4 - e^1_9 + f^1_11 - e^1_14 = 0
 R197: - e^1_4 + f^1_11 - e^1_14 >= 0
 R198: - f^1_11 + g^1_11 = 0
 R199: - RK^0_11 + g^1_11 = 0
 R200: - R^0_11 + L^1_11 >= 0
 R201: - R^0_11 - g^1_11 + L^1_11 = 0
 R202: - L^0_11 + R^1_11 >= 0
 R203: - L^0_11 - f^1_11 + R^1_11 = 0
 R204: - RK^0_12 + a^1_12 = 0
 R205: - L^0_12 + a^1_12 = 0
 R206: R^0_12 - b^1_12 = 0
 R207: - b^1_12 + c^1_12 >= 0
 R208: - a^1_12 - b^1_12 + c^1_12 = 0
 R209: - c^1_13 + d^1_12 = 0
 R210: - c^1_14 + d^1_12 = 0
 R211: e^1_12 - d^1_12 >= 0
 R212: - c^1_12 + e^1_12 - d^1_12 = 0
 R213: - e^1_5 - e^1_10 + f^1_12 - e^1_15 = 0
 R214: - e^1_5 + f^1_12 - e^1_15 >= 0
 R215: - f^1_12 + g^1_12 = 0
 R216: - RK^0_12 + g^1_12 = 0
 R217: - R^0_12 + L^1_12 >= 0
 R218: - R^0_12 - g^1_12 + L^1_12 = 0
 R219: - L^0_12 + R^1_12 >= 0
 R220: - L^0_12 - f^1_12 + R^1_12 = 0
 R221: - RK^0_13 + a^1_13 = 0
 R222: - L^0_13 + a^1_13 = 0
 R223: R^0_13 - b^1_13 = 0
 R224: - b^1_13 + c^1_13 >= 0
 R225: - a^1_13 - b^1_13 + c^1_13 = 0
 R226: - c^1_14 + d^1_13 = 0
 R227: - c^1_15 + d^1_13 = 0
 R228: e^1_13 - d^1_13 >= 0
 R229: - c^1_13 + e^1_13 - d^1_13 = 0
 R230: - e^1_0 - e^1_6 - e^1_11 + f^1_13 = 0
 R231: - e^1_0 - e^1_6 + f^1_13 >= 0
 R232: - f^1_13 + g^1_13 = 0
 R233: - RK^0_13 + g^1_13 = 0
 R234: - R^0_13 + L^1_13 >= 0
 R235: - R^0_13 - g^1_13 + L^1_13 = 0
 R236: - L^0_13 + R^1_13 >= 0
 R237: - L^0_13 - f^1_13 + R^1_13 = 0
 R238: - RK^0_14 + a^1_14 = 0
 R239: - L^0_14 + a^1_14 = 0
 R240: R^0_14 - b^1_14 = 0
 R241: - b^1_14 + c^1_14 >= 0
 R242: - a^1_14 - b^1_14 + c^1_14 = 0
 R243: - c^1_14 + e^1_14 = 0
 R244: - e^1_1 - e^1_7 - e^1_12 + f^1_14 = 0
 R245: - e^1_1 - e^1_7 + f^1_14 >= 0
 R246: - f^1_14 + g^1_14 = 0
 R247: - RK^0_14 + g^1_14 = 0
 R248: - R^0_14 + L^1_14 >= 0
 R249: - R^0_14 - g^1_14 + L^1_14 = 0
 R250: - L^0_14 + R^1_14 >= 0
 R251: - L^0_14 - f^1_14 + R^1_14 = 0
 R252: - RK^0_15 + a^1_15 = 0
 R253: - L^0_15 + a^1_15 = 0
 R254: R^0_15 - b^1_15 = 0
 R255: - b^1_15 + c^1_15 >= 0
 R256: - a^1_15 - b^1_15 + c^1_15 = 0
 R257: - c^1_15 + e^1_15 = 0
 R258: - e^1_2 - e^1_8 - e^1_13 + f^1_15 = 0
 R259: - e^1_2 - e^1_8 + f^1_15 >= 0
 R260: - f^1_15 + g^1_15 = 0
 R261: - RK^0_15 + g^1_15 = 0
 R262: - R^0_15 + L^1_15 >= 0
 R263: - R^0_15 - g^1_15 + L^1_15 = 0
 R264: - L^0_15 + R^1_15 >= 0
 R265: - L^0_15 - f^1_15 + R^1_15 = 0
 R266: - K_0 + RK^0_0 = 0
 R267: - flag_0 + RK^0_0 = 0
 R268: - K_1 + RK^0_1 = 0
 R269: - flag_1 + RK^0_1 = 0
 R270: - K_2 + RK^0_2 = 0
 R271: - flag_2 + RK^0_2 = 0
 R272: - K_3 + RK^0_3 = 0
 R273: - flag_3 + RK^0_3 = 0
 R274: - K_4 + RK^0_4 = 0
 R275: - flag_4 + RK^0_4 = 0
 R276: - K_5 + RK^0_5 = 0
 R277: - flag_5 + RK^0_5 = 0
 R278: - K_6 + RK^0_6 = 0
 R279: - flag_6 + RK^0_6 = 0
 R280: - K_7 + RK^0_7 = 0
 R281: - flag_7 + RK^0_7 = 0
 R282: - K_8 + RK^0_8 = 0
 R283: - flag_8 + RK^0_8 = 0
 R284: - K_9 + RK^0_9 = 0
 R285: - flag_9 + RK^0_9 = 0
 R286: - K_10 + RK^0_10 = 0
 R287: - flag_10 + RK^0_10 = 0
 R288: - K_11 + RK^0_11 = 0
 R289: - flag_11 + RK^0_11 = 0
 R290: - K_12 + RK^0_12 = 0
 R291: - flag_12 + RK^0_12 = 0
 R292: - K_13 + RK^0_13 = 0
 R293: - flag_13 + RK^0_13 = 0
 R294: - K_14 + RK^0_14 = 0
 R295: - flag_14 + RK^0_14 = 0
 R296: - K_15 + RK^0_15 = 0
 R297: - flag_15 + RK^0_15 = 0
 R298: L^1_0 = 1
Bounds
 flag_0 <= 2
 flag_1 <= 2
 flag_2 <= 2
 flag_3 <= 2
 flag_4 <= 2
 flag_5 <= 2
 flag_6 <= 2
 flag_7 <= 2
 flag_8 <= 2
 flag_9 <= 2
 flag_10 <= 2
 flag_11 <= 2
 flag_12 <= 2
 flag_13 <= 2
 flag_14 <= 2
 flag_15 <= 2
 flag_16 <= 2
 flag_17 <= 2
 flag_18 <= 2
 flag_19 <= 2
 flag_20 <= 2
 flag_21 <= 2
 flag_22 <= 2
 flag_23 <= 2
 flag_24 <= 2
 flag_25 <= 2
 flag_26 <= 2
 flag_27 <= 2
 flag_28 <= 2
 flag_29 <= 2
 flag_30 <= 2
 flag_31 <= 2
 flag_32 <= 2
 flag_33 <= 2
 flag_34 <= 2
 flag_35 <= 2
 flag_36 <= 2
 flag_37 <= 2
 flag_38 <= 2
 flag_39 <= 2
 flag_40 <= 2
 flag_41 <= 2
 flag_42 <= 2
 flag_43 <= 2
 flag_44 <= 2
 flag_45 <= 2
 flag_46 <= 2
 flag_47 <= 2
 flag_48 <= 2
 flag_49 <= 2
 flag_50 <= 2
 flag_51 <= 2
 flag_52 <= 2
 flag_53 <= 2
 flag_54 <= 2
 flag_55 <= 2
 flag_56 <= 2
 flag_57 <= 2
 flag_58 <= 2
 flag_59 <= 2
 flag_60 <= 2
 flag_61 <= 2
 flag_62 <= 2
 flag_63 <= 2
Binaries
 L^0_0 R^0_0 L^0_1 R^0_1 L^0_2 R^0_2 L^0_3 R^0_3 L^0_4 R^0_4 L^0_5 R^0_5
 L^0_6 R^0_6 L^0_7 R^0_7 L^0_8 R^0_8 L^0_9 R^0_9 L^0_10 R^0_10 L^0_11
 R^0_11 L^0_12 R^0_12 L^0_13 R^0_13 L^0_14 R^0_14 L^0_15 R^0_15 K_0 K_1 K_2
 K_3 K_4 K_5 K_6 K_7 K_8 K_9 K_10 K_11 K_12 K_13 K_14 K_15 K_16 K_17 K_18
 K_19 K_20 K_21 K_22 K_23 K_24 K_25 K_26 K_27 K_28 K_29 K_30 K_31 K_32 K_33
 K_34 K_35 K_36 K_37 K_38 K_39 K_40 K_41 K_42 K_43 K_44 K_45 K_46 K_47 K_48
 K_49 K_50 K_51 K_52 K_53 K_54 K_55 K_56 K_57 K_58 K_59 K_60 K_61 K_62 K_63
 RK^0_0 a^1_0 b^1_0 c^1_0 e^1_0 f^1_0 g^1_0 L^1_0 R^1_0 RK^0_1 a^1_1 b^1_1
 c^1_1 e^1_1 f^1_1 g^1_1 L^1_1 R^1_1 RK^0_2 a^1_2 b^1_2 c^1_2 e^1_2 f^1_2
 g^1_2 L^1_2 R^1_2 RK^0_3 a^1_3 b^1_3 c^1_3 e^1_3 f^1_3 g^1_3 L^1_3 R^1_3
 RK^0_4 a^1_4 b^1_4 c^1_4 e^1_4 f^1_4 g^1_4 L^1_4 R^1_4 RK^0_5 a^1_5 b^1_5
 c^1_5 e^1_5 f^1_5 g^1_5 L^1_5 R^1_5 RK^0_6 a^1_6 b^1_6 c^1_6 e^1_6 f^1_6
 g^1_6 L^1_6 R^1_6 RK^0_7 a^1_7 b^1_7 c^1_7 e^1_7 f^1_7 g^1_7 L^1_7 R^1_7
 RK^0_8 a^1_8 b^1_8 c^1_8 e^1_8 f^1_8 g^1_8 L^1_8 R^1_8 RK^0_9 a^1_9 b^1_9
 c^1_9 e^1_9 f^1_9 g^1_9 L^1_9 R^1_9 RK^0_10 a^1_10 b^1_10 c^1_10 e^1_10
 f^1_10 g^1_10 L^1_10 R^1_10 RK^0_11 a^1_11 b^1_11 c^1_11 e^1_11 f^1_11
 g^1_11 L^1_11 R^1_11 RK^0_12 a^1_12 b^1_12 c^1_12 e^1_12 f^1_12 g^1_12
 L^1_12 R^1_12 RK^0_13 a^1_13 b^1_13 c^1_13 e^1_13 f^1_13 g^1_13 L^1_13
 R^1_13 RK^0_14 a^1_14 b^1_14 c^1_14 e^1_14 f^1_14 g^1_14 L^1_14 R^1_14
 RK^0_15 a^1_15 b^1_15 c^1_15 e^1_15 f^1_15 g^1_15 L^1_15 R^1_15 d^1_0
 d^1_1 d^1_2 d^1_3 d^1_4 d^1_5 d^1_6 d^1_7 d^1_8 d^1_9 d^1_10 d^1_11 d^1_12
 d^1_13
Generals
 flag_0 flag_1 flag_2 flag_3 flag_4 flag_5 flag_6 flag_7 flag_8 flag_9
 flag_10 flag_11 flag_12 flag_13 flag_14 flag_15 flag_16 flag_17 flag_18
 flag_19 flag_20 flag_21 flag_22 flag_23 flag_24 flag_25 flag_26 flag_27
 flag_28 flag_29 flag_30 flag_31 flag_32 flag_33 flag_34 flag_35 flag_36
 flag_37 flag_38 flag_39 flag_40 flag_41 flag_42 flag_43 flag_44 flag_45
 flag_46 flag_47 flag_48 flag_49 flag_50 flag_51 flag_52 flag_53 flag_54
 flag_55 flag_56 flag_57 flag_58 flag_59 flag_60 flag_61 flag_62 flag_63
End
